experiment/data/hgs-res/Vrp-Set-A-n65/Vrp-Set-A-n65-hgs/0.hgs1.vrp
NAME : 0
COMMENT : CVRP Instance
TYPE : CVRP
DIMENSION : 65
EDGE_WEIGHT_TYPE : EUC_2D
CAPACITY : 100
NODE_COORD_SECTION
1	25.0	51.0
2	35.0	7.0
3	93.0	75.0
4	53.0	95.0
5	51.0	81.0
6	51.0	55.0
7	1.0	67.0
8	9.0	23.0
9	75.0	7.0
10	15.0	97.0
11	79.0	5.0
12	9.0	19.0
13	39.0	1.0
14	47.0	1.0
15	33.0	97.0
16	27.0	83.0
17	83.0	79.0
18	17.0	59.0
19	47.0	19.0
20	57.0	9.0
21	87.0	41.0
22	55.0	25.0
23	21.0	91.0
24	21.0	13.0
25	67.0	1.0
26	59.0	21.0
27	1.0	75.0
28	33.0	85.0
29	25.0	21.0
30	45.0	29.0
31	63.0	77.0
32	1.0	77.0
33	77.0	41.0
34	35.0	11.0
35	9.0	77.0
36	61.0	87.0
37	59.0	91.0
38	63.0	79.0
39	97.0	67.0
40	9.0	45.0
41	93.0	21.0
42	83.0	71.0
43	95.0	57.0
44	31.0	69.0
45	77.0	17.0
46	63.0	57.0
47	3.0	63.0
48	11.0	69.0
49	7.0	9.0
50	37.0	65.0
51	75.0	83.0
52	15.0	53.0
53	69.0	5.0
54	69.0	27.0
55	5.0	19.0
56	49.0	31.0
57	77.0	17.0
58	15.0	7.0
59	91.0	39.0
60	79.0	17.0
61	67.0	75.0
62	93.0	51.0
63	25.0	33.0
64	9.0	19.0
65	3.0	65.0
DEMAND_SECTION
1	0
2	12
3	24
4	16
5	7
6	9
7	20
8	10
9	18
10	26
11	17
12	2
13	11
14	9
15	12
16	11
17	12
18	23
19	7
20	1
21	26
22	10
23	9
24	22
25	21
26	17
27	2
28	15
29	16
30	14
31	23
32	24
33	2
34	12
35	18
36	5
37	19
38	15
39	8
40	6
41	14
42	13
43	5
44	24
45	25
46	2
47	8
48	14
49	2
50	13
51	10
52	6
53	6
54	24
55	21
56	20
57	24
58	4
59	19
60	14
61	23
62	2
63	16
64	23
65	14
DEPOT_SECTION
1
-1
EOF
