experiment/data/hgs-res/Vrp-Set-A-n65/Vrp-Set-A-n65-hgs/0.hgs1.log
=========== Algorithm Parameters =================
---- nbGranular        is set to 20
---- mu                is set to 25
---- lambda            is set to 40
---- nbElite           is set to 4
---- nbClose           is set to 5
---- targetFeasible    is set to 0.2
---- seed              is set to 1234
---- nbIter            is set to 20000
---- timeLimit         is set to 0
---- useSwapStar       is set to 1
==================================================
----- READING INSTANCE: baseline_results/cvrp_hgs/Vrp-Set-A-n65/Vrp-Set-A-n65-hgs/0.hgs1.vrp
----- FLEET SIZE WAS NOT SPECIFIED: DEFAULT INITIALIZATION TO 15 VEHICLES
----- INSTANCE SUCCESSFULLY LOADED WITH 64 CLIENTS AND 15 VEHICLES
----- BUILDING INITIAL POPULATION
----- STARTING GENETIC ALGORITHM
It      0      2 | T(s) 0.06 | Feas 44 1184.66 1199.80 | Inf 33 1185.81 1205.93 | Div 0.36 0.37 | Feas 0.68 1.00 | Pen 3.66 0.85
It    500    301 | T(s) 0.24 | Feas 33 1183.31 1190.89 | Inf 42 1172.97 1183.94 | Div 0.37 0.30 | Feas 0.29 1.00 | Pen 1.63 0.38
It   1000    801 | T(s) 0.43 | Feas 55 1183.31 1185.57 | Inf 38 1181.91 1187.72 | Div 0.26 0.34 | Feas 0.18 1.00 | Pen 1.99 0.17
It   1500    371 | T(s) 0.61 | Feas 57 1181.69 1186.05 | Inf 46 1165.62 1181.11 | Div 0.28 0.30 | Feas 0.26 1.00 | Pen 1.47 0.10
It   2000    871 | T(s) 0.81 | Feas 53 1181.69 1186.66 | Inf 41 1174.90 1179.16 | Div 0.29 0.20 | Feas 0.22 1.00 | Pen 1.76 0.10
It   2500   1371 | T(s) 1.01 | Feas 57 1181.69 1185.68 | Inf 61 1149.53 1152.64 | Div 0.26 0.09 | Feas 0.18 1.00 | Pen 1.27 0.10
It   3000   1871 | T(s) 1.21 | Feas 43 1181.69 1186.56 | Inf 51 1164.63 1171.79 | Div 0.32 0.18 | Feas 0.30 1.00 | Pen 1.56 0.10
It   3500   2371 | T(s) 1.40 | Feas 64 1181.69 1186.07 | Inf 43 1181.62 1183.94 | Div 0.27 0.29 | Feas 0.21 1.00 | Pen 1.90 0.10
It   4000   2871 | T(s) 1.59 | Feas 27 1181.69 1189.46 | Inf 63 1168.29 1174.35 | Div 0.38 0.18 | Feas 0.27 1.00 | Pen 1.62 0.10
It   4500   3371 | T(s) 1.78 | Feas 28 1181.69 1189.50 | Inf 38 1171.37 1184.15 | Div 0.39 0.31 | Feas 0.27 1.00 | Pen 1.68 0.10
It   5000   3871 | T(s) 1.97 | Feas 44 1181.69 1186.14 | Inf 27 1159.49 1175.05 | Div 0.30 0.31 | Feas 0.26 1.00 | Pen 1.43 0.10
It   5500   4371 | T(s) 2.17 | Feas 37 1181.69 1188.13 | Inf 58 1159.55 1165.51 | Div 0.35 0.15 | Feas 0.17 1.00 | Pen 1.46 0.10
It   6000   4871 | T(s) 2.36 | Feas 63 1181.69 1184.82 | Inf 49 1161.10 1165.75 | Div 0.21 0.15 | Feas 0.17 1.00 | Pen 1.49 0.10
It   6500   5371 | T(s) 2.56 | Feas 63 1181.69 1183.60 | Inf 47 1179.09 1183.31 | Div 0.18 0.25 | Feas 0.27 1.00 | Pen 1.82 0.10
It   7000   5871 | T(s) 2.74 | Feas 61 1181.69 1185.96 | Inf 28 1164.29 1174.12 | Div 0.26 0.26 | Feas 0.19 1.00 | Pen 1.55 0.10
It   7500   6371 | T(s) 2.93 | Feas 52 1181.69 1185.23 | Inf 56 1181.38 1184.78 | Div 0.26 0.27 | Feas 0.31 1.00 | Pen 1.90 0.10
It   8000   6871 | T(s) 3.12 | Feas 53 1181.69 1186.75 | Inf 51 1181.86 1184.97 | Div 0.29 0.21 | Feas 0.12 1.00 | Pen 1.93 0.10
It   8500   7371 | T(s) 3.32 | Feas 64 1181.69 1185.84 | Inf 34 1169.32 1177.40 | Div 0.26 0.26 | Feas 0.21 1.00 | Pen 1.64 0.10
It   9000   7871 | T(s) 3.51 | Feas 50 1181.69 1186.93 | Inf 64 1171.04 1176.79 | Div 0.30 0.17 | Feas 0.16 1.00 | Pen 1.68 0.10
It   9500   8371 | T(s) 3.70 | Feas 37 1181.69 1186.87 | Inf 53 1172.62 1177.12 | Div 0.34 0.15 | Feas 0.20 1.00 | Pen 1.71 0.10
It  10000   8871 | T(s) 3.89 | Feas 63 1181.69 1185.52 | Inf 42 1172.62 1178.32 | Div 0.25 0.18 | Feas 0.21 1.00 | Pen 1.71 0.10
It  10500   9371 | T(s) 4.08 | Feas 38 1181.69 1185.43 | Inf 38 1174.23 1179.28 | Div 0.30 0.19 | Feas 0.21 1.00 | Pen 1.75 0.10
It  11000   9871 | T(s) 4.27 | Feas 28 1181.69 1192.60 | Inf 64 1160.78 1164.22 | Div 0.40 0.10 | Feas 0.16 1.00 | Pen 1.48 0.10
It  11500  10371 | T(s) 4.46 | Feas 41 1181.69 1187.53 | Inf 52 1163.95 1170.49 | Div 0.31 0.15 | Feas 0.31 1.00 | Pen 1.54 0.10
It  12000  10871 | T(s) 4.64 | Feas 54 1181.69 1187.96 | Inf 45 1180.99 1184.16 | Div 0.29 0.29 | Feas 0.25 1.00 | Pen 1.89 0.10
It  12500  11371 | T(s) 4.83 | Feas 57 1181.69 1185.33 | Inf 34 1182.19 1186.94 | Div 0.25 0.32 | Feas 0.19 1.00 | Pen 2.27 0.10
It  13000  11871 | T(s) 5.02 | Feas 37 1181.69 1188.42 | Inf 36 1168.96 1178.56 | Div 0.35 0.27 | Feas 0.23 1.00 | Pen 1.64 0.10
It  13500  12371 | T(s) 5.22 | Feas 27 1181.69 1191.97 | Inf 34 1170.70 1175.88 | Div 0.40 0.19 | Feas 0.11 1.00 | Pen 1.67 0.10
It  14000  12871 | T(s) 5.41 | Feas 56 1181.69 1184.09 | Inf 57 1158.92 1164.19 | Div 0.20 0.15 | Feas 0.36 1.00 | Pen 1.45 0.10
It  14500  13371 | T(s) 5.61 | Feas 26 1181.69 1191.02 | Inf 48 1175.53 1182.21 | Div 0.41 0.27 | Feas 0.23 1.00 | Pen 1.77 0.10
It  15000  13871 | T(s) 5.80 | Feas 54 1181.69 1184.91 | Inf 31 1178.63 1184.89 | Div 0.25 0.33 | Feas 0.21 1.00 | Pen 1.81 0.10
It  15500  14371 | T(s) 5.99 | Feas 38 1181.69 1187.34 | Inf 62 1177.19 1181.82 | Div 0.33 0.23 | Feas 0.16 1.00 | Pen 1.81 0.10
It  16000  14871 | T(s) 6.18 | Feas 31 1181.69 1186.92 | Inf 43 1177.19 1180.97 | Div 0.35 0.23 | Feas 0.25 1.00 | Pen 1.81 0.10
It  16500  15371 | T(s) 6.36 | Feas 52 1181.69 1187.04 | Inf 31 1177.19 1184.32 | Div 0.29 0.33 | Feas 0.17 1.00 | Pen 1.81 0.10
It  17000  15871 | T(s) 6.55 | Feas 47 1181.69 1186.79 | Inf 51 1164.45 1176.52 | Div 0.32 0.23 | Feas 0.28 1.00 | Pen 1.54 0.10
It  17500  16371 | T(s) 6.75 | Feas 26 1181.69 1193.78 | Inf 52 1178.89 1182.72 | Div 0.42 0.18 | Feas 0.13 1.00 | Pen 1.84 0.10
It  18000  16871 | T(s) 6.95 | Feas 49 1181.69 1186.09 | Inf 35 1180.63 1184.32 | Div 0.28 0.30 | Feas 0.22 1.00 | Pen 1.88 0.10
It  18500  17371 | T(s) 7.14 | Feas 53 1181.69 1186.30 | Inf 53 1181.84 1183.89 | Div 0.28 0.25 | Feas 0.25 1.00 | Pen 1.92 0.10
It  19000  17871 | T(s) 7.33 | Feas 54 1181.69 1185.24 | Inf 33 1168.60 1176.17 | Div 0.26 0.25 | Feas 0.23 1.00 | Pen 1.63 0.10
It  19500  18371 | T(s) 7.52 | Feas 26 1181.69 1196.74 | Inf 34 1181.88 1186.22 | Div 0.43 0.25 | Feas 0.09 1.00 | Pen 1.96 0.10
It  20000  18871 | T(s) 7.71 | Feas 50 1181.69 1186.51 | Inf 54 1170.33 1182.20 | Div 0.31 0.29 | Feas 0.33 1.00 | Pen 1.66 0.10
It  20500  19371 | T(s) 7.90 | Feas 52 1181.69 1185.17 | Inf 36 1171.96 1179.45 | Div 0.26 0.22 | Feas 0.15 1.00 | Pen 1.70 0.10
It  21000  19871 | T(s) 8.10 | Feas 57 1181.69 1184.27 | Inf 58 1173.56 1175.41 | Div 0.22 0.11 | Feas 0.25 1.00 | Pen 1.73 0.10
----- GENETIC ALGORITHM FINISHED AFTER 21131 ITERATIONS. TIME SPENT: 8.14756
----- WRITING BEST SOLUTION IN : baseline_results/cvrp_hgs/Vrp-Set-A-n65/Vrp-Set-A-n65-hgs/0.hgs1.tour
