experiment/data/hgs-res/Vrp-Set-A-n65/Vrp-Set-A-n65-hgs/0.hgs1.tour
Route #1: 28 23 57 48 54 63 11 7
Route #2: 55 29 62 39 51 17
Route #3: 33 1 12 13 24 52 25 21
Route #4: 5 53 56 10 8 19 18
Route #5: 44 59 40 58 20 32
Route #6: 60 50 16 41 2 38 42 61 45
Route #7: 30 37 35 36 3 4 49
Route #8: 15 22 9 14 27 43
Route #9: 47 34 31 26 6 64 46
Cost 1181.69
